certificates/rado_a9_c137_N17.cnf
c Rad2 upper bound instance: x1 + 9*x2 - x3 = 137, interval [1,17]
p cnf 17 64
1 8 16 0
-1 -8 -16 0
1 17 0
-1 -17 0
2 9 16 0
-2 -9 -16 0
1 3 15 0
-1 -3 -15 0
3 10 16 0
-3 -10 -16 0
2 4 15 0
-2 -4 -15 0
4 11 16 0
-4 -11 -16 0
3 5 15 0
-3 -5 -15 0
5 12 16 0
-5 -12 -16 0
4 6 15 0
-4 -6 -15 0
6 13 16 0
-6 -13 -16 0
5 7 15 0
-5 -7 -15 0
7 14 16 0
-7 -14 -16 0
6 8 15 0
-6 -8 -15 0
8 15 16 0
-8 -15 -16 0
7 9 15 0
-7 -9 -15 0
9 16 0
-9 -16 0
8 10 15 0
-8 -10 -15 0
10 16 17 0
-10 -16 -17 0
9 11 15 0
-9 -11 -15 0
1 12 14 0
-1 -12 -14 0
10 12 15 0
-10 -12 -15 0
2 13 14 0
-2 -13 -14 0
11 13 15 0
-11 -13 -15 0
3 14 0
-3 -14 0
12 14 15 0
-12 -14 -15 0
4 14 15 0
-4 -14 -15 0
13 15 0
-13 -15 0
5 14 16 0
-5 -14 -16 0
14 15 16 0
-14 -15 -16 0
6 14 17 0
-6 -14 -17 0
15 17 0
-15 -17 0
