certificates/rado_a9_c137_N17.drat
14 15 0
d 4 14 15 0
15 1 0
d 3 15 1 0
-17 0
1 0
15 0
-13 0
-3 0
14 0
-12 0
-4 0
-16 0
5 0
11 0
9 0
10 0
6 0
-7 0
0
